proyfinal/src/viki/013/andrea/andrea-localstore/experimentInOfficeAgust.take6/worker_1/c6033471-94a5-4be1-9046-43da79bed748.als.cnf.out
Reading from standard input... Use '--help' for help.
============================[ Problem Statistics ]=============================
|                                                                             |
|  Number of variables:         87638                                         |
|  Number of clauses:          161767                                         |
|  Parse time:                   0.04 s                                       |
|                                                                             |
============================[ Search Statistics ]==============================
| Conflicts |          ORIGINAL         |          LEARNT          | Progress |
|           |    Vars  Clauses Literals |    Limit  Clauses Lit/Cl |          |
===============================================================================
|       100 |   62113   104410   260460 |    38283      100     23 | 29.125 % |
|       250 |   62113   104410   260460 |    42112      250     71 | 29.125 % |
|       475 |   62112   104366   260370 |    46323      474     51 | 29.127 % |
|       812 |   62112   104366   260370 |    50955      811     59 | 29.127 % |
|      1318 |   62111   104363   260364 |    56051     1316     67 | 29.128 % |
|      2077 |   62111   104363   260364 |    61656     2075     66 | 29.128 % |
|      3216 |   62111   104363   260364 |    67821     3214     85 | 29.128 % |
|      4924 |   53304    78528   196957 |    74604     4891     75 | 39.177 % |
|      7486 |   53165    77917   195438 |    82064     7448     68 | 39.336 % |
|     11330 |   53051    77409   194219 |    90270    11262     67 | 39.466 % |
|     17096 |   52082    76542   192173 |    99297    15885     61 | 40.571 % |
===============================================================================
restarts              : 63
conflicts             : 17107          (8744 /sec)
decisions             : 53993          (0.00 % random) (27598 /sec)
propagations          : 21829869       (11158308 /sec)
conflict literals     : 1040811        (43.97 % deleted)
Memory used           : 28.19 MB
CPU time              : 1.95638 s

UNSATISFIABLE
